% Auto-generated by scripts/generate_dzn.py
% problem_type   = regex
% instance       = regex_1
% source_json    = instances_json/1_medium_blowup/regex_1.json
% blowup         = 2.0
% representation = NFA

mode = 1;

var_count = 19;
n_constraints = 2;
Q = 15;
S = 2;
q0 = [1, 1];
F = [{7}, {15}];
weights = [9, 10, 1, 2, 9, 4, 6, 3, 5, 1, 9, 4, 4, 2, 3, 3, 5, 3, 10];
d_dfa = array3d(1..2, 1..15, 1..2, [
  % k = 1
    0, 0,
    0, 0,
    0, 0,
    0, 0,
    0, 0,
    0, 0,
    0, 0,
    0, 0,
    0, 0,
    0, 0,
    0, 0,
    0, 0,
    0, 0,
    0, 0,
    0, 0,

  % k = 2
    0, 0,
    0, 0,
    0, 0,
    0, 0,
    0, 0,
    0, 0,
    0, 0,
    0, 0,
    0, 0,
    0, 0,
    0, 0,
    0, 0,
    0, 0,
    0, 0,
    0, 0
]);
d_nfa = array3d(1..2, 1..15, 1..2, [
  % k = 1
    {1}, {1, 2},
    {}, {3},
    {4}, {4},
    {5}, {5},
    {6}, {6},
    {7}, {7},
    {}, {},
    {}, {},
    {}, {},
    {}, {},
    {}, {},
    {}, {},
    {}, {},
    {}, {},
    {}, {},

  % k = 2
    {1}, {2},
    {2}, {3},
    {3}, {4},
    {4}, {5},
    {5}, {6},
    {6}, {7},
    {7}, {8},
    {8}, {9},
    {9}, {10},
    {10}, {11},
    {11}, {12},
    {12}, {13},
    {13}, {14},
    {14}, {15},
    {15}, {}
]);
